c This is QMaxSAT 2017 based on 14.07
c This is Glucose 3.0
c This is MiniSat 2.2.0
c WARNING: for repeatability, setting FPU to use double precision
c card = mrwto, comp = 0, pmodel = 0, narr = 6, mct = 29, verb = 0
cr firstCPXsol 0 0 0
c top = 167313
c |  Number of variables:    4024726                                          |
c |  Number of clauses:      300507072                                        |
c |  Weight of hard clauses: 167313                                           |
c |  Number of soft clauses: 4872                                             |
c |  Number of unit soft clauses: 4872                                        |
c |  Maximum Cardinality (by unit): 1003872      (1003872     )               |
c last restart ## conflicts  :  176 433298 
o 1485 | cpuTime 47.1098 s
c Sum of weights = 167312
c A number of soft clauses remained = 812
c MRWTO encoding for Pseudo-Boolean Constraints
c sizeMax=1485
c No.0 Divisor=12	generated by pow1
c No.1 Divisor=12	generated by pow1
c No.2 Divisor=12	generated by pow1
c p0= 12	p1= 12	p2= 12	
c number of digits = 4
c linkingVar[0].size = 12, linkingVar[1].size = 12, linkingVar[2].size = 11, linkingVar[3].size = 1, 
c Pseudo-Boolean Constraints: 18933 variables and 184066 clauses
c Sum of weights = 167312
c A number of soft clauses remained = 812
c MRWTO encoding for Pseudo-Boolean Constraints
c sizeMax=1485
c No.0 Divisor=12	generated by pow1
c No.1 Divisor=12	generated by pow1
c No.2 Divisor=12	generated by pow1
c p0= 12	p1= 12	p2= 12	
c number of digits = 4
c linkingVar[0].size = 12, linkingVar[1].size = 12, linkingVar[2].size = 11, linkingVar[3].size = 1, 
c Pseudo-Boolean Constraints: 18933 variables and 184066 clauses
c Sum of weights = 167312
c A number of soft clauses remained = 812
c MRWTO encoding for Pseudo-Boolean Constraints
c sizeMax=1485
c No.0 Divisor=12	generated by pow1
c No.1 Divisor=12	generated by pow1
c No.2 Divisor=12	generated by pow1
c p0= 12	p1= 12	p2= 12	
c number of digits = 4
c linkingVar[0].size = 12, linkingVar[1].size = 12, linkingVar[2].size = 11, linkingVar[3].size = 1, 
c Pseudo-Boolean Constraints: 18933 variables and 184066 clauses
c Sum of weights = 167312
c A number of soft clauses remained = 812
c MRWTO encoding for Pseudo-Boolean Constraints
c sizeMax=1485
c No.0 Divisor=12	generated by pow1
c No.1 Divisor=12	generated by pow1
c No.2 Divisor=12	generated by pow1
c p0= 12	p1= 12	p2= 12	
c number of digits = 4
c linkingVar[0].size = 12, linkingVar[1].size = 12, linkingVar[2].size = 11, linkingVar[3].size = 1, 
c Pseudo-Boolean Constraints: 18933 variables and 184066 clauses
c Sum of weights = 167312
c A number of soft clauses remained = 812
c MRWTO encoding for Pseudo-Boolean Constraints
c sizeMax=1485
c No.0 Divisor=12	generated by pow1
c No.1 Divisor=12	generated by pow1
c No.2 Divisor=12	generated by pow1
c p0= 12	p1= 12	p2= 12	
c number of digits = 4
c linkingVar[0].size = 12, linkingVar[1].size = 12, linkingVar[2].size = 11, linkingVar[3].size = 1, 
c Pseudo-Boolean Constraints: 18933 variables and 184066 clauses
c Sum of weights = 167312
c A number of soft clauses remained = 812
c MRWTO encoding for Pseudo-Boolean Constraints
c sizeMax=1485
c No.0 Divisor=12	generated by pow1
c No.1 Divisor=12	generated by pow1
c No.2 Divisor=12	generated by pow1
c p0= 12	p1= 12	p2= 12	
c number of digits = 4
c linkingVar[0].size = 12, linkingVar[1].size = 12, linkingVar[2].size = 11, linkingVar[3].size = 1, 
c Pseudo-Boolean Constraints: 18933 variables and 184066 clauses
c last restart ## conflicts  :  481 431421 
o 1384 | cpuTime 635.71 s
c last restart ## conflicts  :  746 428436 
o 1233 | cpuTime 1156.3 s
c last restart ## conflicts  :  783 436970 
o 1116 | cpuTime 1741.49 s
s UNKNOWN
c Search is stopped by a limit (maybe time-limit)
cr positiVarArr: [ | 10@1(1->10) | 100@1(4->13) | 280@1(10->19) | 368@1(13->20) | 526@1(19->4) | 552@1(20->1) | 866@2(1->25) | 1074@2(9->1) | 1240@2(14->22) | 1319@2(17->14) | 1459@2(22->9) | 1554@2(25->17) | 1688@3(1->6) | 1821@3(5->23) | 1839@3(6->12) | 1973@3(11->1) | 2006@3(12->5) | 2331@3(23->11) | 2541@4(1->18) | 2698@4(7->1) | 3043@4(18->27) | 3284@4(27->7) | 3388@5(1->24) | 3791@5(15->21) | 3945@5(21->1) | 4046@5(24->15) | 4213@6(1->8) | 4263@6(2->29) | 4289@6(3->26) | 4436@6(8->28) | 4641@6(16->1) | 4946@6(26->16) | 4990@6(28->2) | 5020@6(29->3) | ]
cr the 1-th chain: [ 1->10->19->4->13->20->1 ] (#non-depot=5) {#cumul.=6}
cr the 2-th chain: [ 1->25->17->14->22->9->1 ] (#non-depot=5) {#cumul.=11}
cr the 3-th chain: [ 1->6->12->5->23->11->1 ] (#non-depot=5) {#cumul.=16}
cr the 4-th chain: [ 1->18->27->7->1 ] (#non-depot=3) {#cumul.=19}
cr the 5-th chain: [ 1->24->15->21->1 ] (#non-depot=3) {#cumul.=22}
cr the 6-th chain: [ 1->8->28->2->29->3->26->16->1 ] (#non-depot=7) {#cumul.=29}
c Latest Answer = 0 by 4 loops
c restarts              : 6188
c conflicts             : 858928         (239 /sec)
c decisions             : 16380630       (0.00 % random) (4553 /sec)
c propagations          : 14733560658    (4095223 /sec)
c conflict literals     : 150938441      (17.00 % deleted)
c Memory used           : 20307.00 MB
c CPU time              : 3597.74 s
